networks/zoo_96_1354/zoo_96_1354-lower.txt
Number of groups: 43
Flow 1: {1 2 0} {2 50 0} 
Flow 2: {1 3 0} {3 51 0} 
Flow 3: {1 4 0} {4 52 0} 
Flow 4: {1 5 0} {5 53 0} 
Flow 5: {5 8 0} {8 56 0} 
Flow 6: {5 28 0} {28 9 0} {9 57 0} 
Flow 7: {28 10 0} {10 58 0} 
Flow 8: {5 17 0} {17 14 0} {14 12 0} {12 60 0} 
Flow 9: {3 48 0} {48 13 0} {13 61 0} 
Flow 10: {14 62 0} 
Flow 11: {17 16 0} {16 15 0} {15 63 0} 
Flow 12: {17 65 0} 
Flow 13: {17 18 0} {18 66 0} 
Flow 14: {18 19 0} {19 67 0} 
Flow 15: {19 20 0} {20 68 0} 
Flow 16: {38 21 0} {21 69 0} 
Flow 16: {28 34 0} {34 32 0} {32 31 0} {31 38 0} Flow 17: {13 26 0} {26 22 0} {22 70 0} 
Flow 18: {43 23 0} {23 71 0} 
Flow 18: {26 43 0} Flow 19: {20 24 0} {24 72 0} 
Flow 20: {26 74 0} 
Flow 21: {28 76 0} 
Flow 22: {43 29 0} {29 77 0} 
Flow 23: {43 30 0} {30 78 0} 
Flow 24: {31 79 0} 
Flow 25: {32 80 0} 
Flow 26: {32 33 0} {33 81 0} 
Flow 27: {34 82 0} 
Flow 28: {23 36 0} {36 84 0} 
Flow 29: {38 86 0} 
Flow 30: {48 46 0} {46 45 0} {45 41 0} {41 89 0} 
Flow 31: {41 42 0} {42 90 0} 
Flow 32: {43 91 0} 
Flow 33: {45 93 0} 
Flow 34: {46 94 0} 
Flow 35: {46 47 0} {47 95 0} 
Flow 36: {48 96 0} 
Flow 37: {2 1 0} {1 49 0} 
Flow 70: {3 1 0} Flow 106: {4 1 0} Flow 117: {5 1 0} Flow 121: {5 7 0} {7 55 0} 
Flow 125: {12 11 0} {11 59 0} 
Flow 130: {16 64 0} 
Flow 136: {15 22 0} Flow 137: {14 25 0} {25 26 0} Flow 139: {25 73 0} 
Flow 148: {38 35 0} {35 83 0} 
Flow 149: {24 36 0} Flow 151: {47 39 0} {39 87 0} 
Flow 159: {6 28 0} {28 5 0} Flow 193: {7 5 0} Flow 224: {8 5 0} Flow 257: {9 28 0} Flow 292: {10 28 0} Flow 315: {11 12 0} {12 14 0} {14 17 0} {17 5 0} Flow 322: {43 45 0} Flow 331: {26 13 0} Flow 355: {23 42 0} Flow 358: {13 48 0} Flow 361: {48 3 0} Flow 369: {26 25 0} {25 14 0} Flow 371: {22 15 0} Flow 372: {15 16 0} Flow 376: {36 24 0} {24 20 0} Flow 441: {16 17 0} Flow 451: {22 26 0} Flow 519: {18 17 0} Flow 538: {36 23 0} Flow 558: {19 18 0} Flow 571: {23 43 0} Flow 572: {20 19 0} Flow 582: {43 26 0} Flow 604: {42 41 0} Flow 608: {45 46 0} Flow 611: {21 38 0} {38 31 0} {31 32 0} {32 34 0} {34 28 0} Flow 769: {27 5 0} Flow 835: {29 43 0} Flow 844: {30 43 0} Flow 932: {33 32 0} Flow 985: {35 38 0} Flow 1047: {37 24 0} Flow 1090: {39 47 0} {47 46 0} {46 48 0} Flow 1093: {45 43 0} Flow 1110: {40 1 0} Flow 1132: {41 45 0} Flow 1145: {42 23 0} Flow 1210: {44 43 0} Time taken running everything: 1 seconds
