networks/zoo_96_1354/zoo_96_1354-lower.sol
<?xml version = "1.0" encoding="UTF-8" standalone="yes"?>
<CPLEXSolution version="1.2">
 <header
   problemName="networks/zoo_96_1354/zoo_96_1354-lower.lp"
   solutionName="incumbent"
   solutionIndex="-1"
   objectiveValue="43"
   solutionTypeValue="3"
   solutionTypeString="primal"
   solutionStatusValue="101"
   solutionStatusString="integer optimal solution"
   solutionMethodString="mip"
   primalFeasible="1"
   dualFeasible="1"
   MIPNodes="0"
   MIPIterations="0"
   writeLevel="3"/>
 <quality
   epInt="1.0000000000000001e-05"
   epRHS="9.9999999999999995e-07"
   maxIntInfeas="0"
   maxPrimalInfeas="0"
   maxX="1"
   maxSlack="1"/>
 <variables>
  <variable name="Y(1,2)" index="1" value="1"/>
  <variable name="Y(2,3)" index="93" value="1"/>
  <variable name="Y(3,4)" index="185" value="1"/>
  <variable name="Y(4,5)" index="277" value="1"/>
  <variable name="Y(5,8)" index="371" value="1"/>
  <variable name="Y(6,9)" index="463" value="1"/>
  <variable name="Y(7,10)" index="555" value="1"/>
  <variable name="Y(8,12)" index="648" value="1"/>
  <variable name="Y(9,13)" index="740" value="1"/>
  <variable name="Y(10,14)" index="832" value="1"/>
  <variable name="Y(11,15)" index="924" value="1"/>
  <variable name="Y(12,17)" index="1017" value="1"/>
  <variable name="Y(13,18)" index="1109" value="1"/>
  <variable name="Y(14,19)" index="1201" value="1"/>
  <variable name="Y(15,20)" index="1293" value="1"/>
  <variable name="Y(16,21)" index="1385" value="1"/>
  <variable name="Y(17,22)" index="1477" value="1"/>
  <variable name="Y(18,23)" index="1569" value="1"/>
  <variable name="Y(19,24)" index="1661" value="1"/>
  <variable name="Y(20,26)" index="1754" value="1"/>
  <variable name="Y(21,28)" index="1847" value="1"/>
  <variable name="Y(22,29)" index="1939" value="1"/>
  <variable name="Y(23,30)" index="2031" value="1"/>
  <variable name="Y(24,31)" index="2123" value="1"/>
  <variable name="Y(25,32)" index="2215" value="1"/>
  <variable name="Y(26,33)" index="2307" value="1"/>
  <variable name="Y(27,34)" index="2399" value="1"/>
  <variable name="Y(28,36)" index="2492" value="1"/>
  <variable name="Y(29,38)" index="2585" value="1"/>
  <variable name="Y(30,41)" index="2679" value="1"/>
  <variable name="Y(31,42)" index="2771" value="1"/>
  <variable name="Y(32,43)" index="2863" value="1"/>
  <variable name="Y(33,45)" index="2956" value="1"/>
  <variable name="Y(34,46)" index="3048" value="1"/>
  <variable name="Y(35,47)" index="3140" value="1"/>
  <variable name="Y(36,48)" index="3232" value="1"/>
  <variable name="Y(37,1)" index="3276" value="1"/>
  <variable name="Y(121,7)" index="10926" value="1"/>
  <variable name="Y(125,11)" index="11294" value="1"/>
  <variable name="Y(130,16)" index="11754" value="1"/>
  <variable name="Y(139,25)" index="12582" value="1"/>
  <variable name="Y(148,35)" index="13411" value="1"/>
  <variable name="Y(151,39)" index="13688" value="1"/>
  <variable name="X(1,2,1)" index="123214" value="1"/>
  <variable name="X(1,3,2)" index="124569" value="1"/>
  <variable name="X(1,4,3)" index="125924" value="1"/>
  <variable name="X(1,5,4)" index="127279" value="1"/>
  <variable name="X(1,49,37)" index="128666" value="1"/>
  <variable name="X(2,1,37)" index="130020" value="1"/>
  <variable name="X(2,50,1)" index="131338" value="1"/>
  <variable name="X(3,1,70)" index="132761" value="1"/>
  <variable name="X(3,48,9)" index="134054" value="1"/>
  <variable name="X(3,51,2)" index="135401" value="1"/>
  <variable name="X(4,1,106)" index="136859" value="1"/>
  <variable name="X(4,52,3)" index="138110" value="1"/>
  <variable name="X(5,1,117)" index="139578" value="1"/>
  <variable name="X(5,7,121)" index="140936" value="1"/>
  <variable name="X(5,8,5)" index="142174" value="1"/>
  <variable name="X(5,17,8)" index="143531" value="1"/>
  <variable name="X(5,28,6)" index="144883" value="1"/>
  <variable name="X(5,53,4)" index="146235" value="1"/>
  <variable name="X(6,28,159)" index="147744" value="1"/>
  <variable name="X(7,5,193)" index="149132" value="1"/>
  <variable name="X(7,55,121)" index="150414" value="1"/>
  <variable name="X(8,5,224)" index="151871" value="1"/>
  <variable name="X(8,56,5)" index="153006" value="1"/>
  <variable name="X(9,28,257)" index="154612" value="1"/>
  <variable name="X(9,57,6)" index="155715" value="1"/>
  <variable name="X(10,28,292)" index="157355" value="1"/>
  <variable name="X(10,58,7)" index="158424" value="1"/>
  <variable name="X(11,12,315)" index="160086" value="1"/>
  <variable name="X(11,59,125)" index="161250" value="1"/>
  <variable name="X(12,11,125)" index="162604" value="1"/>
  <variable name="X(12,14,315)" index="164148" value="1"/>
  <variable name="X(12,60,8)" index="165195" value="1"/>
  <variable name="X(13,26,17)" index="166558" value="1"/>
  <variable name="X(13,48,358)" index="168253" value="1"/>
  <variable name="X(13,61,9)" index="169258" value="1"/>
  <variable name="X(14,12,8)" index="170611" value="1"/>
  <variable name="X(14,17,315)" index="172272" value="1"/>
  <variable name="X(14,25,137)" index="173448" value="1"/>
  <variable name="X(14,62,10)" index="174675" value="1"/>
  <variable name="X(15,16,372)" index="176391" value="1"/>
  <variable name="X(15,22,136)" index="177509" value="1"/>
  <variable name="X(15,63,11)" index="178738" value="1"/>
  <variable name="X(16,15,11)" index="180092" value="1"/>
  <variable name="X(16,17,441)" index="181876" value="1"/>
  <variable name="X(16,64,130)" index="182919" value="1"/>
  <variable name="X(17,5,315)" index="184458" value="1"/>
  <variable name="X(17,14,8)" index="185505" value="1"/>
  <variable name="X(17,16,11)" index="186862" value="1"/>
  <variable name="X(17,18,13)" index="188218" value="1"/>
  <variable name="X(17,65,12)" index="189571" value="1"/>
  <variable name="X(18,17,519)" index="191432" value="1"/>
  <variable name="X(18,19,14)" index="192281" value="1"/>
  <variable name="X(18,66,13)" index="193634" value="1"/>
  <variable name="X(19,18,558)" index="195533" value="1"/>
  <variable name="X(19,20,15)" index="196344" value="1"/>
  <variable name="X(19,67,14)" index="197697" value="1"/>
  <variable name="X(20,19,572)" index="199609" value="1"/>
  <variable name="X(20,24,19)" index="200410" value="1"/>
  <variable name="X(20,68,15)" index="201760" value="1"/>
  <variable name="X(21,38,611)" index="203710" value="1"/>
  <variable name="X(21,69,16)" index="204469" value="1"/>
  <variable name="X(22,15,371)" index="206178" value="1"/>
  <variable name="X(22,26,451)" index="207612" value="1"/>
  <variable name="X(22,70,17)" index="208532" value="1"/>
  <variable name="X(23,36,28)" index="209897" value="1"/>
  <variable name="X(23,42,355)" index="211578" value="1"/>
  <variable name="X(23,43,571)" index="213148" value="1"/>
  <variable name="X(23,71,18)" index="213949" value="1"/>
  <variable name="X(24,20,376)" index="215661" value="1"/>
  <variable name="X(24,36,149)" index="216788" value="1"/>
  <variable name="X(24,72,19)" index="218012" value="1"/>
  <variable name="X(25,14,369)" index="219716" value="1"/>
  <variable name="X(25,26,137)" index="220838" value="1"/>
  <variable name="X(25,73,139)" index="222194" value="1"/>
  <variable name="X(26,13,331)" index="223740" value="1"/>
  <variable name="X(26,22,17)" index="224780" value="1"/>
  <variable name="X(26,25,369)" index="226486" value="1"/>
  <variable name="X(26,43,18)" index="227489" value="1"/>
  <variable name="X(26,74,20)" index="228845" value="1"/>
  <variable name="X(27,5,769)" index="230948" value="1"/>
  <variable name="X(28,5,159)" index="231692" value="1"/>
  <variable name="X(28,9,6)" index="232893" value="1"/>
  <variable name="X(28,10,7)" index="234248" value="1"/>
  <variable name="X(28,34,16)" index="235611" value="1"/>
  <variable name="X(28,76,21)" index="236970" value="1"/>
  <variable name="X(29,43,835)" index="239138" value="1"/>
  <variable name="X(29,77,22)" index="239679" value="1"/>
  <variable name="X(30,43,844)" index="241855" value="1"/>
  <variable name="X(30,78,23)" index="242388" value="1"/>
  <variable name="X(31,32,611)" index="244330" value="1"/>
  <variable name="X(31,38,16)" index="245089" value="1"/>
  <variable name="X(31,79,24)" index="246451" value="1"/>
  <variable name="X(32,31,16)" index="247797" value="1"/>
  <variable name="X(32,33,26)" index="249161" value="1"/>
  <variable name="X(32,34,611)" index="251100" value="1"/>
  <variable name="X(32,80,25)" index="251868" value="1"/>
  <variable name="X(33,32,932)" index="254129" value="1"/>
  <variable name="X(33,81,26)" index="254577" value="1"/>
  <variable name="X(34,28,611)" index="256516" value="1"/>
  <variable name="X(34,32,16)" index="257275" value="1"/>
  <variable name="X(34,82,27)" index="258640" value="1"/>
  <variable name="X(35,38,985)" index="260952" value="1"/>
  <variable name="X(35,83,148)" index="261469" value="1"/>
  <variable name="X(36,23,538)" index="263213" value="1"/>
  <variable name="X(36,24,376)" index="264405" value="1"/>
  <variable name="X(36,84,28)" index="265411" value="1"/>
  <variable name="X(37,24,1047)" index="267784" value="1"/>
  <variable name="X(38,21,16)" index="268107" value="1"/>
  <variable name="X(38,31,611)" index="270056" value="1"/>
  <variable name="X(38,35,148)" index="270947" value="1"/>
  <variable name="X(38,86,29)" index="272182" value="1"/>
  <variable name="X(39,47,1090)" index="274597" value="1"/>
  <variable name="X(39,87,151)" index="275012" value="1"/>
  <variable name="X(40,1,1110)" index="277325" value="1"/>
  <variable name="X(41,42,31)" index="277600" value="1"/>
  <variable name="X(41,45,1132)" index="280055" value="1"/>
  <variable name="X(41,89,30)" index="280307" value="1"/>
  <variable name="X(42,23,1145)" index="282776" value="1"/>
  <variable name="X(42,41,604)" index="283589" value="1"/>
  <variable name="X(42,90,31)" index="284370" value="1"/>
  <variable name="X(43,23,18)" index="285711" value="1"/>
  <variable name="X(43,26,582)" index="287629" value="1"/>
  <variable name="X(43,29,22)" index="288423" value="1"/>
  <variable name="X(43,30,23)" index="289778" value="1"/>
  <variable name="X(43,45,322)" index="291431" value="1"/>
  <variable name="X(43,91,32)" index="292495" value="1"/>
  <variable name="X(44,43,1210)" index="295027" value="1"/>
  <variable name="X(45,41,30)" index="295201" value="1"/>
  <variable name="X(45,43,1093)" index="297618" value="1"/>
  <variable name="X(45,46,608)" index="298487" value="1"/>
  <variable name="X(45,93,33)" index="299266" value="1"/>
  <variable name="X(46,45,30)" index="300617" value="1"/>
  <variable name="X(46,47,35)" index="301976" value="1"/>
  <variable name="X(46,48,1090)" index="304385" value="1"/>
  <variable name="X(46,94,34)" index="304683" value="1"/>
  <variable name="X(47,39,151)" index="306154" value="1"/>
  <variable name="X(47,46,1090)" index="308447" value="1"/>
  <variable name="X(47,95,35)" index="308746" value="1"/>
  <variable name="X(48,3,361)" index="310426" value="1"/>
  <variable name="X(48,13,9)" index="311428" value="1"/>
  <variable name="X(48,46,30)" index="312803" value="1"/>
  <variable name="X(48,96,36)" index="314163" value="1"/>
 </variables>
</CPLEXSolution>
